(declare-const X String)
; ^([a-z-[dfioquwz]]|[A-Z-[DFIOQUWZ]])\d([a-z-[dfioqu]]|[A-Z-[DFIOQU]])(\s)?\d([a-z-[dfioqu]]|[A-Z-[DFIOQU]])\d$
(assert (not (str.in_re X (re.++ (re.union (re.++ (re.union (re.range "a" "z") (str.to_re "-") (str.to_re "[") (str.to_re "d") (str.to_re "f") (str.to_re "i") (str.to_re "o") (str.to_re "q") (str.to_re "u") (str.to_re "w") (str.to_re "z")) (str.to_re "]")) (re.++ (re.union (re.range "A" "Z") (str.to_re "-") (str.to_re "[") (str.to_re "D") (str.to_re "F") (str.to_re "I") (str.to_re "O") (str.to_re "Q") (str.to_re "U") (str.to_re "W") (str.to_re "Z")) (str.to_re "]"))) (re.range "0" "9") (re.union (re.++ (re.union (re.range "a" "z") (str.to_re "-") (str.to_re "[") (str.to_re "d") (str.to_re "f") (str.to_re "i") (str.to_re "o") (str.to_re "q") (str.to_re "u")) (str.to_re "]")) (re.++ (re.union (re.range "A" "Z") (str.to_re "-") (str.to_re "[") (str.to_re "D") (str.to_re "F") (str.to_re "I") (str.to_re "O") (str.to_re "Q") (str.to_re "U")) (str.to_re "]"))) (re.opt (re.union (str.to_re " ") (str.to_re "\u{9}") (str.to_re "\u{a}") (str.to_re "\u{c}") (str.to_re "\u{d}"))) (re.range "0" "9") (re.union (re.++ (re.union (re.range "a" "z") (str.to_re "-") (str.to_re "[") (str.to_re "d") (str.to_re "f") (str.to_re "i") (str.to_re "o") (str.to_re "q") (str.to_re "u")) (str.to_re "]")) (re.++ (re.union (re.range "A" "Z") (str.to_re "-") (str.to_re "[") (str.to_re "D") (str.to_re "F") (str.to_re "I") (str.to_re "O") (str.to_re "Q") (str.to_re "U")) (str.to_re "]"))) (re.range "0" "9") (str.to_re "\u{a}")))))
(check-sat)
